Sat 19 May 19:29:30 CEST 2018
CPXPARAM_TimeLimit                               45
CPXPARAM_Threads                                 1
CPXPARAM_MIP_Strategy_CallbackReducedLP          0
Tried aggregator 5 times.
MIP Presolve eliminated 3662 rows and 2016 columns.
MIP Presolve modified 1288 coefficients.
Aggregator did 2228 substitutions.
Reduced MIP has 4522 rows, 4289 columns, and 12566 nonzeros.
Reduced MIP has 3824 binaries, 7 generals, 0 SOSs, and 836 indicators.
Presolve time = 0.04 sec. (55.84 ticks)
Probing time = 0.12 sec. (103.06 ticks)
Tried aggregator 4 times.
Aggregator did 2132 substitutions.
Reduced MIP has 2390 rows, 2157 columns, and 8302 nonzeros.
Reduced MIP has 1692 binaries, 465 generals, 0 SOSs, and 836 indicators.
Presolve time = 0.01 sec. (19.79 ticks)
Probing time = 0.06 sec. (48.18 ticks)
Tried aggregator 1 time.
Reduced MIP has 2390 rows, 2157 columns, and 8302 nonzeros.
Reduced MIP has 1692 binaries, 465 generals, 0 SOSs, and 836 indicators.
Presolve time = 0.01 sec. (7.86 ticks)
Probing time = 0.00 sec. (4.50 ticks)
Clique table members: 61952.
MIP emphasis: balance optimality and feasibility.
MIP search method: dynamic search.
Parallel mode: none, using 1 thread.
Root relaxation solution time = 0.01 sec. (9.77 ticks)

        Nodes                                         Cuts/
   Node  Left     Objective  IInf  Best Integer    Best Bound    ItCnt     Gap

      0     0        0.0000   772                      0.0000      218         
      0     0        0.0000   795                Cliques: 697      542         
      0     0        0.0000   819                Cliques: 697      882         
      0     2        0.0000   819                      0.0000      882         
Elapsed time = 1.92 sec. (2640.75 ticks, tree = 0.01 MB, solutions = 0)
     40    42        0.0000   698                      0.0000      965         
     92    93        6.0000   589                      1.0000     1567         
    109   106        3.0000   381                      2.0000     2265         
    160   152        5.0000   335                      2.0000     2810         
    175   167        5.0000   309                      2.0000     3782         
*   180+  170                           14.0000        2.0000            85.71%
    195   157        3.0000   271       14.0000        3.0000     4330   78.57%
    200   162        3.0000    10       14.0000        3.0000     5101   78.57%
*   250+  169                           12.0000        3.0000            75.00%
*   270+  130                           10.0000        3.0000            70.00%
*   273   102      integral     0        9.0000        3.0000     5583   66.67%
*   280+   86                            8.0000        3.0000            62.50%
*   300+   69                            7.0000        3.0000            57.14%
    301    69        3.0000    22        7.0000        3.0000     6120   57.14%
*   308    13      integral     0        5.0000        3.0000     6161   40.00%
*   320+    1                            4.0000        3.0000            25.00%

Clique cuts applied:  1402
Implied bound cuts applied:  6

Root node processing (before b&c):
  Real time             =    1.92 sec. (2641.25 ticks)
Sequential b&c:
  Real time             =    1.86 sec. (2565.65 ticks)
                          ------------
Total (root+branch&cut) =    3.77 sec. (5206.90 ticks)
   | W
 L | 0 1 2 3 4 5 6 7 8 
----------------------
 0 | 4 4 4 5 5 5 6 6 6 
 1 | 4 4 4 5 5 5 6 6 6 
 2 | 4 4 4 5 5 5 6 6 6 
 3 | . 1 . . . 2 2 3 3 
 4 | . . . . . . . . . 
 5 | . . . . . . . . . 
 6 | . . . . . . . . . 
 7 | . . . . . . . . . 
 8 | . . . . . . . . . 
 9 | . . . . . . . . . 
10 | . . . . . . . . . 
11 | . . . . . . . . . 
12 | . . . . . . . . . 
13 | . . . . . . . . . 

Boxes' corners:      (w,l)
    Box 1 is at 
        top left     (1,3)
        bottom right (1,3)

    Box 2 is at 
        top left     (5,3)
        bottom right (6,3)

    Box 3 is at 
        top left     (7,3)
        bottom right (8,3)

    Box 4 is at 
        top left     (0,0)
        bottom right (2,2)

    Box 5 is at 
        top left     (3,0)
        bottom right (5,2)

    Box 6 is at 
        top left     (6,0)
        bottom right (8,2)

    Roll length used: 4
In 3.79 seconds
